mchess/mchess-formulas/mc8.cnf
p cnf 108 344
c Exactly one constraints for square 7,0 (2 variables)
96 103 0
-103 -96 0
c Exactly one constraints for square 6,0 (3 variables)
81 89 96 0
-89 -81 0
-96 -81 0
-96 -89 0
c Exactly one constraints for square 5,0 (3 variables)
66 74 81 0
-74 -66 0
-81 -66 0
-81 -74 0
c Exactly one constraints for square 4,0 (3 variables)
51 59 66 0
-59 -51 0
-66 -51 0
-66 -59 0
c Exactly one constraints for square 3,0 (3 variables)
36 44 51 0
-44 -36 0
-51 -36 0
-51 -44 0
c Exactly one constraints for square 2,0 (3 variables)
21 29 36 0
-29 -21 0
-36 -21 0
-36 -29 0
c Exactly one constraints for square 1,0 (2 variables)
14 21 0
-21 -14 0
c Exactly one constraints for square 7,1 (3 variables)
97 104 103 0
-104 -97 0
-103 -97 0
-103 -104 0
c Exactly one constraints for square 6,1 (4 variables)
82 90 97 89 0
-90 -82 0
-97 -82 0
-97 -90 0
-89 -82 0
-89 -90 0
-89 -97 0
c Exactly one constraints for square 5,1 (4 variables)
67 75 82 74 0
-75 -67 0
-82 -67 0
-82 -75 0
-74 -67 0
-74 -75 0
-74 -82 0
c Exactly one constraints for square 4,1 (4 variables)
52 60 67 59 0
-60 -52 0
-67 -52 0
-67 -60 0
-59 -52 0
-59 -60 0
-59 -67 0
c Exactly one constraints for square 3,1 (4 variables)
37 45 52 44 0
-45 -37 0
-52 -37 0
-52 -45 0
-44 -37 0
-44 -45 0
-44 -52 0
c Exactly one constraints for square 2,1 (4 variables)
22 30 37 29 0
-30 -22 0
-37 -22 0
-37 -30 0
-29 -22 0
-29 -30 0
-29 -37 0
c Exactly one constraints for square 1,1 (4 variables)
7 15 22 14 0
-15 -7 0
-22 -7 0
-22 -15 0
-14 -7 0
-14 -15 0
-14 -22 0
c Exactly one constraints for square 0,1 (2 variables)
1 7 0
-7 -1 0
c Exactly one constraints for square 7,2 (3 variables)
98 105 104 0
-105 -98 0
-104 -98 0
-104 -105 0
c Exactly one constraints for square 6,2 (4 variables)
83 91 98 90 0
-91 -83 0
-98 -83 0
-98 -91 0
-90 -83 0
-90 -91 0
-90 -98 0
c Exactly one constraints for square 5,2 (4 variables)
68 76 83 75 0
-76 -68 0
-83 -68 0
-83 -76 0
-75 -68 0
-75 -76 0
-75 -83 0
c Exactly one constraints for square 4,2 (4 variables)
53 61 68 60 0
-61 -53 0
-68 -53 0
-68 -61 0
-60 -53 0
-60 -61 0
-60 -68 0
c Exactly one constraints for square 3,2 (4 variables)
38 46 53 45 0
-46 -38 0
-53 -38 0
-53 -46 0
-45 -38 0
-45 -46 0
-45 -53 0
c Exactly one constraints for square 2,2 (4 variables)
23 31 38 30 0
-31 -23 0
-38 -23 0
-38 -31 0
-30 -23 0
-30 -31 0
-30 -38 0
c Exactly one constraints for square 1,2 (4 variables)
8 16 23 15 0
-16 -8 0
-23 -8 0
-23 -16 0
-15 -8 0
-15 -16 0
-15 -23 0
c Exactly one constraints for square 0,2 (3 variables)
2 8 1 0
-8 -2 0
-1 -2 0
-1 -8 0
c Exactly one constraints for square 7,3 (3 variables)
99 106 105 0
-106 -99 0
-105 -99 0
-105 -106 0
c Exactly one constraints for square 6,3 (4 variables)
84 92 99 91 0
-92 -84 0
-99 -84 0
-99 -92 0
-91 -84 0
-91 -92 0
-91 -99 0
c Exactly one constraints for square 5,3 (4 variables)
69 77 84 76 0
-77 -69 0
-84 -69 0
-84 -77 0
-76 -69 0
-76 -77 0
-76 -84 0
c Exactly one constraints for square 4,3 (4 variables)
54 62 69 61 0
-62 -54 0
-69 -54 0
-69 -62 0
-61 -54 0
-61 -62 0
-61 -69 0
c Exactly one constraints for square 3,3 (4 variables)
39 47 54 46 0
-47 -39 0
-54 -39 0
-54 -47 0
-46 -39 0
-46 -47 0
-46 -54 0
c Exactly one constraints for square 2,3 (4 variables)
24 32 39 31 0
-32 -24 0
-39 -24 0
-39 -32 0
-31 -24 0
-31 -32 0
-31 -39 0
c Exactly one constraints for square 1,3 (4 variables)
9 17 24 16 0
-17 -9 0
-24 -9 0
-24 -17 0
-16 -9 0
-16 -17 0
-16 -24 0
c Exactly one constraints for square 0,3 (3 variables)
3 9 2 0
-9 -3 0
-2 -3 0
-2 -9 0
c Exactly one constraints for square 7,4 (3 variables)
100 107 106 0
-107 -100 0
-106 -100 0
-106 -107 0
c Exactly one constraints for square 6,4 (4 variables)
85 93 100 92 0
-93 -85 0
-100 -85 0
-100 -93 0
-92 -85 0
-92 -93 0
-92 -100 0
c Exactly one constraints for square 5,4 (4 variables)
70 78 85 77 0
-78 -70 0
-85 -70 0
-85 -78 0
-77 -70 0
-77 -78 0
-77 -85 0
c Exactly one constraints for square 4,4 (4 variables)
55 63 70 62 0
-63 -55 0
-70 -55 0
-70 -63 0
-62 -55 0
-62 -63 0
-62 -70 0
c Exactly one constraints for square 3,4 (4 variables)
40 48 55 47 0
-48 -40 0
-55 -40 0
-55 -48 0
-47 -40 0
-47 -48 0
-47 -55 0
c Exactly one constraints for square 2,4 (4 variables)
25 33 40 32 0
-33 -25 0
-40 -25 0
-40 -33 0
-32 -25 0
-32 -33 0
-32 -40 0
c Exactly one constraints for square 1,4 (4 variables)
10 18 25 17 0
-18 -10 0
-25 -10 0
-25 -18 0
-17 -10 0
-17 -18 0
-17 -25 0
c Exactly one constraints for square 0,4 (3 variables)
4 10 3 0
-10 -4 0
-3 -4 0
-3 -10 0
c Exactly one constraints for square 7,5 (3 variables)
101 108 107 0
-108 -101 0
-107 -101 0
-107 -108 0
c Exactly one constraints for square 6,5 (4 variables)
86 94 101 93 0
-94 -86 0
-101 -86 0
-101 -94 0
-93 -86 0
-93 -94 0
-93 -101 0
c Exactly one constraints for square 5,5 (4 variables)
71 79 86 78 0
-79 -71 0
-86 -71 0
-86 -79 0
-78 -71 0
-78 -79 0
-78 -86 0
c Exactly one constraints for square 4,5 (4 variables)
56 64 71 63 0
-64 -56 0
-71 -56 0
-71 -64 0
-63 -56 0
-63 -64 0
-63 -71 0
c Exactly one constraints for square 3,5 (4 variables)
41 49 56 48 0
-49 -41 0
-56 -41 0
-56 -49 0
-48 -41 0
-48 -49 0
-48 -56 0
c Exactly one constraints for square 2,5 (4 variables)
26 34 41 33 0
-34 -26 0
-41 -26 0
-41 -34 0
-33 -26 0
-33 -34 0
-33 -41 0
c Exactly one constraints for square 1,5 (4 variables)
11 19 26 18 0
-19 -11 0
-26 -11 0
-26 -19 0
-18 -11 0
-18 -19 0
-18 -26 0
c Exactly one constraints for square 0,5 (3 variables)
5 11 4 0
-11 -5 0
-4 -5 0
-4 -11 0
c Exactly one constraints for square 7,6 (2 variables)
102 108 0
-108 -102 0
c Exactly one constraints for square 6,6 (4 variables)
87 95 102 94 0
-95 -87 0
-102 -87 0
-102 -95 0
-94 -87 0
-94 -95 0
-94 -102 0
c Exactly one constraints for square 5,6 (4 variables)
72 80 87 79 0
-80 -72 0
-87 -72 0
-87 -80 0
-79 -72 0
-79 -80 0
-79 -87 0
c Exactly one constraints for square 4,6 (4 variables)
57 65 72 64 0
-65 -57 0
-72 -57 0
-72 -65 0
-64 -57 0
-64 -65 0
-64 -72 0
c Exactly one constraints for square 3,6 (4 variables)
42 50 57 49 0
-50 -42 0
-57 -42 0
-57 -50 0
-49 -42 0
-49 -50 0
-49 -57 0
c Exactly one constraints for square 2,6 (4 variables)
27 35 42 34 0
-35 -27 0
-42 -27 0
-42 -35 0
-34 -27 0
-34 -35 0
-34 -42 0
c Exactly one constraints for square 1,6 (4 variables)
12 20 27 19 0
-20 -12 0
-27 -12 0
-27 -20 0
-19 -12 0
-19 -20 0
-19 -27 0
c Exactly one constraints for square 0,6 (3 variables)
6 12 5 0
-12 -6 0
-5 -6 0
-5 -12 0
c Exactly one constraints for square 6,7 (2 variables)
88 95 0
-95 -88 0
c Exactly one constraints for square 5,7 (3 variables)
73 88 80 0
-88 -73 0
-80 -73 0
-80 -88 0
c Exactly one constraints for square 4,7 (3 variables)
58 73 65 0
-73 -58 0
-65 -58 0
-65 -73 0
c Exactly one constraints for square 3,7 (3 variables)
43 58 50 0
-58 -43 0
-50 -43 0
-50 -58 0
c Exactly one constraints for square 2,7 (3 variables)
28 43 35 0
-43 -28 0
-35 -28 0
-35 -43 0
c Exactly one constraints for square 1,7 (3 variables)
13 28 20 0
-28 -13 0
-20 -13 0
-20 -28 0
c Exactly one constraints for square 0,7 (2 variables)
13 6 0
-6 -13 0
